4 10
179 315 194 322 
0 32 24 43 42 62 61 73 79 84 44 52 57 92 76 11 36 26 19 53 85 3
1 32 28 79 71 5 5 52 48 6 29 23 8 49 57 86 95 74 96 91 79 3
2 78 74 55 45 17 15 94 86 32 3 97 82 81 11 94 77 6 21 36 7 3
3 13 15 64 62 8 16 59 63 51 34 89 79 31 44 5 55 89 27 40 61 3
4 24 32 78 83 24 33 83 76 2 87 89 19 85 82 100 25 73 67 40 38 2
5 40 30 79 76 34 31 81 77 61 42 19 8 97 23 82 32 69 39 73 21 1
6 23 33 65 60 86 86 7 13 91 44 55 78 87 18 4 62 7 59 76 82 2
7 1 8 51 46 91 85 29 23 60 21 86 32 46 39 22 45 52 17 49 27 2
8 93 89 65 64 21 30 98 97 22 36 10 69 67 74 12 14 71 20 12 92 4
9 36 26 87 81 22 27 73 82 9 9 81 78 28 82 85 43 50 90 97 34 4
